p wcnf 104 52 53 
1 -64 -83 0 
1 -90 43 0 
1 13 62 0 
1 75 -24 0 
1 103 77 0 
1 40 70 0 
1 -35 -54 0 
1 -41 -58 0 
1 -3 -49 0 
1 -4 -92 0 
1 -53 -95 0 
1 -94 23 0 
1 11 91 0 
1 95 85 0 
1 74 95 0 
1 -72 50 0 
1 -82 -26 0 
1 -59 21 0 
1 46 12 0 
1 23 49 0 
1 -92 -33 0 
1 -3 44 0 
1 28 66 0 
1 -91 23 0 
1 77 -63 0 
1 59 -60 0 
1 85 -79 0 
1 -18 91 0 
1 -28 91 0 
1 66 65 0 
1 49 -59 0 
1 -30 36 0 
1 12 -35 0 
1 -66 -44 0 
1 68 82 0 
1 29 71 0 
1 -84 -53 0 
1 13 76 0 
1 -71 2 0 
1 96 -1 0 
1 19 98 0 
1 -104 33 0 
1 15 35 0 
1 96 -87 0 
1 76 -43 0 
1 75 67 0 
1 -62 8 0 
1 -103 64 0 
1 61 93 0 
1 95 -6 0 
1 53 -36 0 
1 77 73 0 
